n_res = 4;
rc = [ 0, 0, 0, 0 ];
n_tasks = 30;
d = [ 4, 3, 10, 10, 5, 1, 7, 4, 5, 7, 10, 2, 4, 5, 5, 4, 3, 7, 6, 2, 5, 8, 3, 3, 2, 10, 3, 5, 5, 1 ];
rr = [| 0, 0, 0, 0, 0, 0, 0, 0, 0, 0, 0, 0, 0, 0, 0, 0, 0, 0, 0, 0, 0, 0, 0, 0, 0, 0, 0, 0, 0, 0
      | 0, 0, 0, 0, 0, 0, 0, 0, 0, 0, 0, 0, 0, 0, 0, 0, 0, 0, 0, 0, 0, 0, 0, 0, 0, 0, 0, 0, 0, 0
      | 0, 0, 0, 0, 0, 0, 0, 0, 0, 0, 0, 0, 0, 0, 0, 0, 0, 0, 0, 0, 0, 0, 0, 0, 0, 0, 0, 0, 0, 0
      | 0, 0, 0, 0, 0, 0, 0, 0, 0, 0, 0, 0, 0, 0, 0, 0, 0, 0, 0, 0, 0, 0, 0, 0, 0, 0, 0, 0, 0, 0 |];
suc = [ { 4, 6, 19 },
       { 21 },
       { 17 },
       { 5, 8, 9 },
       { 29 },
       { 7, 10, 20 },
       { 29 },
       { 12, 13, 15 },
       { 18 },
       { 11 },
       { 16, 24 },
       { 20, 22 },
       { 14, 26 },
       { 27 },
       { 28 },
       { 23 },
       { 18, 22 },
       { 30 },
       { 22 },
       { 23 },
       { 25, 26 },
       { 25, 30 },
       { 27 },
       { 26, 27 },
       { 29 },
       { 30 },
       { 28 },
       {  },
       {  },
       {  } ];
